(set-info :smt-lib-version 2.6)
(set-logic ALL)
(set-info :source |
Benchmarks used in the followin paper:
Big proof engines as little proof engines: new results on rewrite-based satisfiability procedure
Alessandro Armando, Maria Paola Bonacina, Silvio Ranise, Stephan Schulz. 
PDPAR'05
http://www.ai.dist.unige.it/pdpar05/


|)
(set-info :category "crafted")
(set-info :status unsat)

(declare-sort Element 0)
(declare-fun a_360 () (Seq Element))
(declare-fun a_361 () (Seq Element))
(declare-fun a_362 () (Seq Element))
(declare-fun a_363 () (Seq Element))
(declare-fun a_364 () (Seq Element))
(declare-fun a_365 () (Seq Element))
(declare-fun a_366 () (Seq Element))
(declare-fun a_367 () (Seq Element))
(declare-fun a_368 () (Seq Element))
(declare-fun a_369 () (Seq Element))
(declare-fun a_370 () (Seq Element))
(declare-fun a_371 () (Seq Element))
(declare-fun a_372 () (Seq Element))
(declare-fun a_373 () (Seq Element))
(declare-fun a_374 () (Seq Element))
(declare-fun a_375 () (Seq Element))
(declare-fun a_376 () (Seq Element))
(declare-fun a_377 () (Seq Element))
(declare-fun a_378 () (Seq Element))
(declare-fun a_379 () (Seq Element))
(declare-fun a_380 () (Seq Element))
(declare-fun a_381 () (Seq Element))
(declare-fun a_382 () (Seq Element))
(declare-fun a_383 () (Seq Element))
(declare-fun a_384 () (Seq Element))
(declare-fun a_385 () (Seq Element))
(declare-fun a_386 () (Seq Element))
(declare-fun a_387 () (Seq Element))
(declare-fun a_388 () (Seq Element))
(declare-fun a_389 () (Seq Element))
(declare-fun a_390 () (Seq Element))
(declare-fun a_391 () (Seq Element))
(declare-fun a_392 () (Seq Element))
(declare-fun a_393 () (Seq Element))
(declare-fun a_394 () (Seq Element))
(declare-fun a_395 () (Seq Element))
(declare-fun a_396 () (Seq Element))
(declare-fun a_397 () (Seq Element))
(declare-fun a_398 () (Seq Element))
(declare-fun a_399 () (Seq Element))
(declare-fun a_400 () (Seq Element))
(declare-fun a_401 () (Seq Element))
(declare-fun a_402 () (Seq Element))
(declare-fun a_403 () (Seq Element))
(declare-fun a_404 () (Seq Element))
(declare-fun a_405 () (Seq Element))
(declare-fun a_406 () (Seq Element))
(declare-fun a_407 () (Seq Element))
(declare-fun a_408 () (Seq Element))
(declare-fun a_409 () (Seq Element))
(declare-fun a_410 () (Seq Element))
(declare-fun a_411 () (Seq Element))
(declare-fun a_412 () (Seq Element))
(declare-fun a_413 () (Seq Element))
(declare-fun a_414 () (Seq Element))
(declare-fun a_415 () (Seq Element))
(declare-fun a_416 () (Seq Element))
(declare-fun a_417 () (Seq Element))
(declare-fun a_418 () (Seq Element))
(declare-fun a_419 () (Seq Element))
(declare-fun a1 () (Seq Element))
(declare-fun e1 () Element)
(declare-fun e10 () Element)
(declare-fun e11 () Element)
(declare-fun e12 () Element)
(declare-fun e13 () Element)
(declare-fun e14 () Element)
(declare-fun e15 () Element)
(declare-fun e16 () Element)
(declare-fun e17 () Element)
(declare-fun e18 () Element)
(declare-fun e19 () Element)
(declare-fun e2 () Element)
(declare-fun e20 () Element)
(declare-fun e21 () Element)
(declare-fun e22 () Element)
(declare-fun e23 () Element)
(declare-fun e24 () Element)
(declare-fun e25 () Element)
(declare-fun e26 () Element)
(declare-fun e27 () Element)
(declare-fun e28 () Element)
(declare-fun e29 () Element)
(declare-fun e3 () Element)
(declare-fun e30 () Element)
(declare-fun e4 () Element)
(declare-fun e5 () Element)
(declare-fun e6 () Element)
(declare-fun e7 () Element)
(declare-fun e8 () Element)
(declare-fun e9 () Element)
(declare-fun i1 () Int)
(declare-fun i10 () Int)
(declare-fun i11 () Int)
(declare-fun i12 () Int)
(declare-fun i13 () Int)
(declare-fun i14 () Int)
(declare-fun i15 () Int)
(declare-fun i16 () Int)
(declare-fun i17 () Int)
(declare-fun i18 () Int)
(declare-fun i19 () Int)
(declare-fun i2 () Int)
(declare-fun i20 () Int)
(declare-fun i21 () Int)
(declare-fun i22 () Int)
(declare-fun i23 () Int)
(declare-fun i24 () Int)
(declare-fun i25 () Int)
(declare-fun i26 () Int)
(declare-fun i27 () Int)
(declare-fun i28 () Int)
(declare-fun i29 () Int)
(declare-fun i3 () Int)
(declare-fun i30 () Int)
(declare-fun i4 () Int)
(declare-fun i5 () Int)
(declare-fun i6 () Int)
(declare-fun i7 () Int)
(declare-fun i8 () Int)
(declare-fun i9 () Int)
(assert (= a_360 (seq.update a1 i1 (seq.unit e1))))
(assert (= a_361 (seq.update a_360 i2 (seq.unit e2))))
(assert (= a_362 (seq.update a_361 i3 (seq.unit e3))))
(assert (= a_363 (seq.update a_362 i4 (seq.unit e4))))
(assert (= a_364 (seq.update a_363 i5 (seq.unit e5))))
(assert (= a_365 (seq.update a_364 i6 (seq.unit e6))))
(assert (= a_366 (seq.update a_365 i7 (seq.unit e7))))
(assert (= a_367 (seq.update a_366 i8 (seq.unit e8))))
(assert (= a_368 (seq.update a_367 i9 (seq.unit e9))))
(assert (= a_369 (seq.update a_368 i10 (seq.unit e10))))
(assert (= a_370 (seq.update a_369 i11 (seq.unit e11))))
(assert (= a_371 (seq.update a_370 i12 (seq.unit e12))))
(assert (= a_372 (seq.update a_371 i13 (seq.unit e13))))
(assert (= a_373 (seq.update a_372 i14 (seq.unit e14))))
(assert (= a_374 (seq.update a_373 i15 (seq.unit e15))))
(assert (= a_375 (seq.update a_374 i16 (seq.unit e16))))
(assert (= a_376 (seq.update a_375 i17 (seq.unit e17))))
(assert (= a_377 (seq.update a_376 i18 (seq.unit e18))))
(assert (= a_378 (seq.update a_377 i19 (seq.unit e19))))
(assert (= a_379 (seq.update a_378 i20 (seq.unit e20))))
(assert (= a_380 (seq.update a_379 i21 (seq.unit e21))))
(assert (= a_381 (seq.update a_380 i22 (seq.unit e22))))
(assert (= a_382 (seq.update a_381 i23 (seq.unit e23))))
(assert (= a_383 (seq.update a_382 i24 (seq.unit e24))))
(assert (= a_384 (seq.update a_383 i25 (seq.unit e25))))
(assert (= a_385 (seq.update a_384 i26 (seq.unit e26))))
(assert (= a_386 (seq.update a_385 i27 (seq.unit e27))))
(assert (= a_387 (seq.update a_386 i28 (seq.unit e28))))
(assert (= a_388 (seq.update a_387 i29 (seq.unit e29))))
(assert (= a_389 (seq.update a_388 i30 (seq.unit e30))))
(assert (= a_390 (seq.update a1 i10 (seq.unit e10))))
(assert (= a_391 (seq.update a_390 i12 (seq.unit e12))))
(assert (= a_392 (seq.update a_391 i30 (seq.unit e30))))
(assert (= a_393 (seq.update a_392 i22 (seq.unit e22))))
(assert (= a_394 (seq.update a_393 i5 (seq.unit e5))))
(assert (= a_395 (seq.update a_394 i19 (seq.unit e19))))
(assert (= a_396 (seq.update a_395 i24 (seq.unit e24))))
(assert (= a_397 (seq.update a_396 i20 (seq.unit e20))))
(assert (= a_398 (seq.update a_397 i13 (seq.unit e13))))
(assert (= a_399 (seq.update a_398 i1 (seq.unit e1))))
(assert (= a_400 (seq.update a_399 i11 (seq.unit e11))))
(assert (= a_401 (seq.update a_400 i26 (seq.unit e26))))
(assert (= a_402 (seq.update a_401 i17 (seq.unit e17))))
(assert (= a_403 (seq.update a_402 i15 (seq.unit e15))))
(assert (= a_404 (seq.update a_403 i2 (seq.unit e2))))
(assert (= a_405 (seq.update a_404 i6 (seq.unit e6))))
(assert (= a_406 (seq.update a_405 i3 (seq.unit e3))))
(assert (= a_407 (seq.update a_406 i28 (seq.unit e28))))
(assert (= a_408 (seq.update a_407 i4 (seq.unit e4))))
(assert (= a_409 (seq.update a_408 i29 (seq.unit e29))))
(assert (= a_410 (seq.update a_409 i25 (seq.unit e25))))
(assert (= a_411 (seq.update a_410 i27 (seq.unit e27))))
(assert (= a_412 (seq.update a_411 i9 (seq.unit e9))))
(assert (= a_413 (seq.update a_412 i7 (seq.unit e7))))
(assert (= a_414 (seq.update a_413 i21 (seq.unit e21))))
(assert (= a_415 (seq.update a_414 i16 (seq.unit e16))))
(assert (= a_416 (seq.update a_415 i14 (seq.unit e14))))
(assert (= a_417 (seq.update a_416 i23 (seq.unit e23))))
(assert (= a_418 (seq.update a_417 i8 (seq.unit e8))))
(assert (= a_419 (seq.update a_418 i18 (seq.unit e18))))
(assert (not (= i29 i30)))
(assert (not (= i28 i30)))
(assert (not (= i28 i29)))
(assert (not (= i27 i30)))
(assert (not (= i27 i29)))
(assert (not (= i27 i28)))
(assert (not (= i26 i30)))
(assert (not (= i26 i29)))
(assert (not (= i26 i28)))
(assert (not (= i26 i27)))
(assert (not (= i25 i30)))
(assert (not (= i25 i29)))
(assert (not (= i25 i28)))
(assert (not (= i25 i27)))
(assert (not (= i25 i26)))
(assert (not (= i24 i30)))
(assert (not (= i24 i29)))
(assert (not (= i24 i28)))
(assert (not (= i24 i27)))
(assert (not (= i24 i26)))
(assert (not (= i24 i25)))
(assert (not (= i23 i30)))
(assert (not (= i23 i29)))
(assert (not (= i23 i28)))
(assert (not (= i23 i27)))
(assert (not (= i23 i26)))
(assert (not (= i23 i25)))
(assert (not (= i23 i24)))
(assert (not (= i22 i30)))
(assert (not (= i22 i29)))
(assert (not (= i22 i28)))
(assert (not (= i22 i27)))
(assert (not (= i22 i26)))
(assert (not (= i22 i25)))
(assert (not (= i22 i24)))
(assert (not (= i22 i23)))
(assert (not (= i21 i30)))
(assert (not (= i21 i29)))
(assert (not (= i21 i28)))
(assert (not (= i21 i27)))
(assert (not (= i21 i26)))
(assert (not (= i21 i25)))
(assert (not (= i21 i24)))
(assert (not (= i21 i23)))
(assert (not (= i21 i22)))
(assert (not (= i20 i30)))
(assert (not (= i20 i29)))
(assert (not (= i20 i28)))
(assert (not (= i20 i27)))
(assert (not (= i20 i26)))
(assert (not (= i20 i25)))
(assert (not (= i20 i24)))
(assert (not (= i20 i23)))
(assert (not (= i20 i22)))
(assert (not (= i20 i21)))
(assert (not (= i19 i30)))
(assert (not (= i19 i29)))
(assert (not (= i19 i28)))
(assert (not (= i19 i27)))
(assert (not (= i19 i26)))
(assert (not (= i19 i25)))
(assert (not (= i19 i24)))
(assert (not (= i19 i23)))
(assert (not (= i19 i22)))
(assert (not (= i19 i21)))
(assert (not (= i19 i20)))
(assert (not (= i18 i30)))
(assert (not (= i18 i29)))
(assert (not (= i18 i28)))
(assert (not (= i18 i27)))
(assert (not (= i18 i26)))
(assert (not (= i18 i25)))
(assert (not (= i18 i24)))
(assert (not (= i18 i23)))
(assert (not (= i18 i22)))
(assert (not (= i18 i21)))
(assert (not (= i18 i20)))
(assert (not (= i18 i19)))
(assert (not (= i17 i30)))
(assert (not (= i17 i29)))
(assert (not (= i17 i28)))
(assert (not (= i17 i27)))
(assert (not (= i17 i26)))
(assert (not (= i17 i25)))
(assert (not (= i17 i24)))
(assert (not (= i17 i23)))
(assert (not (= i17 i22)))
(assert (not (= i17 i21)))
(assert (not (= i17 i20)))
(assert (not (= i17 i19)))
(assert (not (= i17 i18)))
(assert (not (= i16 i30)))
(assert (not (= i16 i29)))
(assert (not (= i16 i28)))
(assert (not (= i16 i27)))
(assert (not (= i16 i26)))
(assert (not (= i16 i25)))
(assert (not (= i16 i24)))
(assert (not (= i16 i23)))
(assert (not (= i16 i22)))
(assert (not (= i16 i21)))
(assert (not (= i16 i20)))
(assert (not (= i16 i19)))
(assert (not (= i16 i18)))
(assert (not (= i16 i17)))
(assert (not (= i15 i30)))
(assert (not (= i15 i29)))
(assert (not (= i15 i28)))
(assert (not (= i15 i27)))
(assert (not (= i15 i26)))
(assert (not (= i15 i25)))
(assert (not (= i15 i24)))
(assert (not (= i15 i23)))
(assert (not (= i15 i22)))
(assert (not (= i15 i21)))
(assert (not (= i15 i20)))
(assert (not (= i15 i19)))
(assert (not (= i15 i18)))
(assert (not (= i15 i17)))
(assert (not (= i15 i16)))
(assert (not (= i14 i30)))
(assert (not (= i14 i29)))
(assert (not (= i14 i28)))
(assert (not (= i14 i27)))
(assert (not (= i14 i26)))
(assert (not (= i14 i25)))
(assert (not (= i14 i24)))
(assert (not (= i14 i23)))
(assert (not (= i14 i22)))
(assert (not (= i14 i21)))
(assert (not (= i14 i20)))
(assert (not (= i14 i19)))
(assert (not (= i14 i18)))
(assert (not (= i14 i17)))
(assert (not (= i14 i16)))
(assert (not (= i14 i15)))
(assert (not (= i13 i30)))
(assert (not (= i13 i29)))
(assert (not (= i13 i28)))
(assert (not (= i13 i27)))
(assert (not (= i13 i26)))
(assert (not (= i13 i25)))
(assert (not (= i13 i24)))
(assert (not (= i13 i23)))
(assert (not (= i13 i22)))
(assert (not (= i13 i21)))
(assert (not (= i13 i20)))
(assert (not (= i13 i19)))
(assert (not (= i13 i18)))
(assert (not (= i13 i17)))
(assert (not (= i13 i16)))
(assert (not (= i13 i15)))
(assert (not (= i13 i14)))
(assert (not (= i12 i30)))
(assert (not (= i12 i29)))
(assert (not (= i12 i28)))
(assert (not (= i12 i27)))
(assert (not (= i12 i26)))
(assert (not (= i12 i25)))
(assert (not (= i12 i24)))
(assert (not (= i12 i23)))
(assert (not (= i12 i22)))
(assert (not (= i12 i21)))
(assert (not (= i12 i20)))
(assert (not (= i12 i19)))
(assert (not (= i12 i18)))
(assert (not (= i12 i17)))
(assert (not (= i12 i16)))
(assert (not (= i12 i15)))
(assert (not (= i12 i14)))
(assert (not (= i12 i13)))
(assert (not (= i11 i30)))
(assert (not (= i11 i29)))
(assert (not (= i11 i28)))
(assert (not (= i11 i27)))
(assert (not (= i11 i26)))
(assert (not (= i11 i25)))
(assert (not (= i11 i24)))
(assert (not (= i11 i23)))
(assert (not (= i11 i22)))
(assert (not (= i11 i21)))
(assert (not (= i11 i20)))
(assert (not (= i11 i19)))
(assert (not (= i11 i18)))
(assert (not (= i11 i17)))
(assert (not (= i11 i16)))
(assert (not (= i11 i15)))
(assert (not (= i11 i14)))
(assert (not (= i11 i13)))
(assert (not (= i11 i12)))
(assert (not (= i10 i30)))
(assert (not (= i10 i29)))
(assert (not (= i10 i28)))
(assert (not (= i10 i27)))
(assert (not (= i10 i26)))
(assert (not (= i10 i25)))
(assert (not (= i10 i24)))
(assert (not (= i10 i23)))
(assert (not (= i10 i22)))
(assert (not (= i10 i21)))
(assert (not (= i10 i20)))
(assert (not (= i10 i19)))
(assert (not (= i10 i18)))
(assert (not (= i10 i17)))
(assert (not (= i10 i16)))
(assert (not (= i10 i15)))
(assert (not (= i10 i14)))
(assert (not (= i10 i13)))
(assert (not (= i10 i12)))
(assert (not (= i10 i11)))
(assert (not (= i9 i30)))
(assert (not (= i9 i29)))
(assert (not (= i9 i28)))
(assert (not (= i9 i27)))
(assert (not (= i9 i26)))
(assert (not (= i9 i25)))
(assert (not (= i9 i24)))
(assert (not (= i9 i23)))
(assert (not (= i9 i22)))
(assert (not (= i9 i21)))
(assert (not (= i9 i20)))
(assert (not (= i9 i19)))
(assert (not (= i9 i18)))
(assert (not (= i9 i17)))
(assert (not (= i9 i16)))
(assert (not (= i9 i15)))
(assert (not (= i9 i14)))
(assert (not (= i9 i13)))
(assert (not (= i9 i12)))
(assert (not (= i9 i11)))
(assert (not (= i9 i10)))
(assert (not (= i8 i30)))
(assert (not (= i8 i29)))
(assert (not (= i8 i28)))
(assert (not (= i8 i27)))
(assert (not (= i8 i26)))
(assert (not (= i8 i25)))
(assert (not (= i8 i24)))
(assert (not (= i8 i23)))
(assert (not (= i8 i22)))
(assert (not (= i8 i21)))
(assert (not (= i8 i20)))
(assert (not (= i8 i19)))
(assert (not (= i8 i18)))
(assert (not (= i8 i17)))
(assert (not (= i8 i16)))
(assert (not (= i8 i15)))
(assert (not (= i8 i14)))
(assert (not (= i8 i13)))
(assert (not (= i8 i12)))
(assert (not (= i8 i11)))
(assert (not (= i8 i10)))
(assert (not (= i8 i9)))
(assert (not (= i7 i30)))
(assert (not (= i7 i29)))
(assert (not (= i7 i28)))
(assert (not (= i7 i27)))
(assert (not (= i7 i26)))
(assert (not (= i7 i25)))
(assert (not (= i7 i24)))
(assert (not (= i7 i23)))
(assert (not (= i7 i22)))
(assert (not (= i7 i21)))
(assert (not (= i7 i20)))
(assert (not (= i7 i19)))
(assert (not (= i7 i18)))
(assert (not (= i7 i17)))
(assert (not (= i7 i16)))
(assert (not (= i7 i15)))
(assert (not (= i7 i14)))
(assert (not (= i7 i13)))
(assert (not (= i7 i12)))
(assert (not (= i7 i11)))
(assert (not (= i7 i10)))
(assert (not (= i7 i9)))
(assert (not (= i7 i8)))
(assert (not (= i6 i30)))
(assert (not (= i6 i29)))
(assert (not (= i6 i28)))
(assert (not (= i6 i27)))
(assert (not (= i6 i26)))
(assert (not (= i6 i25)))
(assert (not (= i6 i24)))
(assert (not (= i6 i23)))
(assert (not (= i6 i22)))
(assert (not (= i6 i21)))
(assert (not (= i6 i20)))
(assert (not (= i6 i19)))
(assert (not (= i6 i18)))
(assert (not (= i6 i17)))
(assert (not (= i6 i16)))
(assert (not (= i6 i15)))
(assert (not (= i6 i14)))
(assert (not (= i6 i13)))
(assert (not (= i6 i12)))
(assert (not (= i6 i11)))
(assert (not (= i6 i10)))
(assert (not (= i6 i9)))
(assert (not (= i6 i8)))
(assert (not (= i6 i7)))
(assert (not (= i5 i30)))
(assert (not (= i5 i29)))
(assert (not (= i5 i28)))
(assert (not (= i5 i27)))
(assert (not (= i5 i26)))
(assert (not (= i5 i25)))
(assert (not (= i5 i24)))
(assert (not (= i5 i23)))
(assert (not (= i5 i22)))
(assert (not (= i5 i21)))
(assert (not (= i5 i20)))
(assert (not (= i5 i19)))
(assert (not (= i5 i18)))
(assert (not (= i5 i17)))
(assert (not (= i5 i16)))
(assert (not (= i5 i15)))
(assert (not (= i5 i14)))
(assert (not (= i5 i13)))
(assert (not (= i5 i12)))
(assert (not (= i5 i11)))
(assert (not (= i5 i10)))
(assert (not (= i5 i9)))
(assert (not (= i5 i8)))
(assert (not (= i5 i7)))
(assert (not (= i5 i6)))
(assert (not (= i4 i30)))
(assert (not (= i4 i29)))
(assert (not (= i4 i28)))
(assert (not (= i4 i27)))
(assert (not (= i4 i26)))
(assert (not (= i4 i25)))
(assert (not (= i4 i24)))
(assert (not (= i4 i23)))
(assert (not (= i4 i22)))
(assert (not (= i4 i21)))
(assert (not (= i4 i20)))
(assert (not (= i4 i19)))
(assert (not (= i4 i18)))
(assert (not (= i4 i17)))
(assert (not (= i4 i16)))
(assert (not (= i4 i15)))
(assert (not (= i4 i14)))
(assert (not (= i4 i13)))
(assert (not (= i4 i12)))
(assert (not (= i4 i11)))
(assert (not (= i4 i10)))
(assert (not (= i4 i9)))
(assert (not (= i4 i8)))
(assert (not (= i4 i7)))
(assert (not (= i4 i6)))
(assert (not (= i4 i5)))
(assert (not (= i3 i30)))
(assert (not (= i3 i29)))
(assert (not (= i3 i28)))
(assert (not (= i3 i27)))
(assert (not (= i3 i26)))
(assert (not (= i3 i25)))
(assert (not (= i3 i24)))
(assert (not (= i3 i23)))
(assert (not (= i3 i22)))
(assert (not (= i3 i21)))
(assert (not (= i3 i20)))
(assert (not (= i3 i19)))
(assert (not (= i3 i18)))
(assert (not (= i3 i17)))
(assert (not (= i3 i16)))
(assert (not (= i3 i15)))
(assert (not (= i3 i14)))
(assert (not (= i3 i13)))
(assert (not (= i3 i12)))
(assert (not (= i3 i11)))
(assert (not (= i3 i10)))
(assert (not (= i3 i9)))
(assert (not (= i3 i8)))
(assert (not (= i3 i7)))
(assert (not (= i3 i6)))
(assert (not (= i3 i5)))
(assert (not (= i3 i4)))
(assert (not (= i2 i30)))
(assert (not (= i2 i29)))
(assert (not (= i2 i28)))
(assert (not (= i2 i27)))
(assert (not (= i2 i26)))
(assert (not (= i2 i25)))
(assert (not (= i2 i24)))
(assert (not (= i2 i23)))
(assert (not (= i2 i22)))
(assert (not (= i2 i21)))
(assert (not (= i2 i20)))
(assert (not (= i2 i19)))
(assert (not (= i2 i18)))
(assert (not (= i2 i17)))
(assert (not (= i2 i16)))
(assert (not (= i2 i15)))
(assert (not (= i2 i14)))
(assert (not (= i2 i13)))
(assert (not (= i2 i12)))
(assert (not (= i2 i11)))
(assert (not (= i2 i10)))
(assert (not (= i2 i9)))
(assert (not (= i2 i8)))
(assert (not (= i2 i7)))
(assert (not (= i2 i6)))
(assert (not (= i2 i5)))
(assert (not (= i2 i4)))
(assert (not (= i2 i3)))
(assert (not (= i1 i30)))
(assert (not (= i1 i29)))
(assert (not (= i1 i28)))
(assert (not (= i1 i27)))
(assert (not (= i1 i26)))
(assert (not (= i1 i25)))
(assert (not (= i1 i24)))
(assert (not (= i1 i23)))
(assert (not (= i1 i22)))
(assert (not (= i1 i21)))
(assert (not (= i1 i20)))
(assert (not (= i1 i19)))
(assert (not (= i1 i18)))
(assert (not (= i1 i17)))
(assert (not (= i1 i16)))
(assert (not (= i1 i15)))
(assert (not (= i1 i14)))
(assert (not (= i1 i13)))
(assert (not (= i1 i12)))
(assert (not (= i1 i11)))
(assert (not (= i1 i10)))
(assert (not (= i1 i9)))
(assert (not (= i1 i8)))
(assert (not (= i1 i7)))
(assert (not (= i1 i6)))
(assert (not (= i1 i5)))
(assert (not (= i1 i4)))
(assert (not (= i1 i3)))
(assert (not (= i1 i2)))
(assert (not (= a_389 a_419)))
(check-sat)
(exit)
